1 115 16 162 76 17 200 128 
4 188 15 54 89 175 56 129 141 191 110 
7 41 36 5 25 116 11 49 27 61 
46 184 71 193 33 144 186 179 190 
55 67 150 137 68 80 64 109 182 167 70 107 
63 44 50 66 69 134 103 101 154 
72 147 153 166 151 125 114 39 37 164 65 43 
73 30 34 98 6 189 177 127 77 108 
87 145 35 60 38 84 90 83 52 24 
106 85 94 12 19 178 23 22 47 82 74 45 
112 152 99 62 194 118 88 183 40 59 
117 3 86 131 130 79 156 172 91 
132 120 26 123 21 126 148 197 
140 57 173 104 95 58 29 96 174 97 
149 81 161 2 8 146 121 32 138 9 
155 18 14 176 31 185 169 53 192 42 
157 93 199 135 133 195 160 180 28 75 
158 51 143 113 165 124 181 111 105 
168 92 48 139 187 171 122 170 78 119 
196 13 20 163 100 136 142 159 102 10 198 
